37 52
42 57
52 64
43 67
25 55
8 52
5 64
16 57
17 63
27 68
37 69
31 62
31 32
46 10
59 15
51 21
48 28
52 33
52 41
45 35
42 41
30 48
21 47
12 42
7 38
17 33
49 49
57 58
63 69
62 63
58 48
62 42
56 37
61 33
58 27
40 30
27 23
32 22
36 16
39 10
30 15
21 10
13 13
5 6
10 17
5 25
20 26
25 32
30 40
32 39
38 46
37 52
